decision_x1=[0,7];
decision_x2=[0,7];
decision_x3=[0,7];
decision_x4=[0,7];
decision_x5=[0,7];
decision_x6=[0,7];
decision_x7=[0,7];
decision_x8=[0,7];
decision_x9=[0,7];
decision_x10=[0,7];
decision_x11=[0,7];
decision_x12=[0,7];
decision_x13=[0,7];
decision_x14=[0,7];
decision_x15=[0,7];
decision_x16=[0,7];
random_y1=[0,7];
random_y2=[0,7];
random_y3=[0,7];
random_y4=[0,7];
random_y5=[0,7];
random_y6=[0,7];
random_y7=[0,7];
constraint_x2_x1=[
0,0,1.4|
0,1,4.6|
0,2,8.3|
0,3,2.5|
0,4,4.1|
0,5,0.81|
0,6,0.073|
0,7,6.1|
1,0,7.7|
1,1,1.9|
1,2,0.09|
1,3,6.7|
1,4,4.8|
1,5,5.7|
1,6,1.7|
1,7,9.4|
2,0,6.6|
2,1,0.51|
2,2,7.8|
2,3,1.6|
2,4,3.3|
2,5,7.9|
2,6,5.7|
2,7,2.8|
3,0,1.8|
3,1,0.59|
3,2,2.4|
3,3,3.9|
3,4,0.3|
3,5,2|
3,6,6|
3,7,7.8|
4,0,5.4|
4,1,6.4|
4,2,8.1|
4,3,2.7|
4,4,8.1|
4,5,2.7|
4,6,7.3|
4,7,3.6|
5,0,2.3|
5,1,3.2|
5,2,8.1|
5,3,4.2|
5,4,7.1|
5,5,7.8|
5,6,7|
5,7,4.7|
6,0,6.2|
6,1,6.7|
6,2,8.5|
6,3,8.9|
6,4,8.4|
6,5,6.5|
6,6,5.2|
6,7,7.8|
7,0,2.5|
7,1,9.9|
7,2,8.6|
7,3,6.6|
7,4,4.4|
7,5,9|
7,6,9|
7,7,1.8|
];
constraint_x3_x2=[
0,0,3.9|
0,1,2.4|
0,2,7.3|
0,3,1|
0,4,7.9|
0,5,5.8|
0,6,7.2|
0,7,3.1|
1,0,3.9|
1,1,1.5|
1,2,5.4|
1,3,9.9|
1,4,5|
1,5,4.9|
1,6,5.6|
1,7,8.2|
2,0,2.7|
2,1,4.6|
2,2,3.6|
2,3,7.6|
2,4,1.9|
2,5,8.7|
2,6,3.8|
2,7,7.4|
3,0,6|
3,1,0.65|
3,2,9|
3,3,9|
3,4,2.4|
3,5,9.4|
3,6,4.3|
3,7,9.2|
4,0,5.2|
4,1,7.4|
4,2,6.5|
4,3,4.4|
4,4,2.1|
4,5,7|
4,6,2.2|
4,7,3.8|
5,0,7.7|
5,1,5.4|
5,2,2.3|
5,3,7.5|
5,4,6.2|
5,5,4.3|
5,6,5.4|
5,7,2.6|
6,0,8.2|
6,1,0.26|
6,2,3.4|
6,3,9.8|
6,4,4.6|
6,5,0.44|
6,6,9|
6,7,4.1|
7,0,9.3|
7,1,6.8|
7,2,1.8|
7,3,6|
7,4,5.8|
7,5,5.7|
7,6,9.4|
7,7,2.8|
];
constraint_x4_x3=[
0,0,8.8|
0,1,6.8|
0,2,8.5|
0,3,8.7|
0,4,1.3|
0,5,3.7|
0,6,5.7|
0,7,8.8|
1,0,5.6|
1,1,1.3|
1,2,5.2|
1,3,6.7|
1,4,7.7|
1,5,0.28|
1,6,6.6|
1,7,7|
2,0,6.2|
2,1,9.9|
2,2,0.17|
2,3,5.7|
2,4,5.9|
2,5,1.1|
2,6,0.84|
2,7,3.9|
3,0,1.9|
3,1,0.63|
3,2,6.8|
3,3,8|
3,4,3.7|
3,5,6.4|
3,6,4.4|
3,7,7.5|
4,0,4.7|
4,1,4.8|
4,2,8.7|
4,3,0.26|
4,4,0.86|
4,5,1.8|
4,6,5.3|
4,7,7.9|
5,0,7.6|
5,1,2.3|
5,2,2.3|
5,3,8.8|
5,4,8.8|
5,5,8.9|
5,6,8|
5,7,5|
6,0,4.3|
6,1,8.6|
6,2,0.41|
6,3,8.5|
6,4,7.4|
6,5,6.8|
6,6,7.4|
6,7,1.8|
7,0,0.53|
7,1,10|
7,2,9.7|
7,3,2.2|
7,4,7.9|
7,5,9|
7,6,2.4|
7,7,4.4|
];
constraint_x5_x1=[
0,0,8|
0,1,7.4|
0,2,4.4|
0,3,6.2|
0,4,7|
0,5,5.6|
0,6,1.1|
0,7,8.4|
1,0,3.9|
1,1,7|
1,2,2.5|
1,3,5.2|
1,4,0.67|
1,5,9.5|
1,6,2.8|
1,7,4.2|
2,0,2.6|
2,1,4.3|
2,2,1.9|
2,3,5.9|
2,4,0.66|
2,5,7|
2,6,9.1|
2,7,8.9|
3,0,0.41|
3,1,3.4|
3,2,2.6|
3,3,5.7|
3,4,3.7|
3,5,5.1|
3,6,9.5|
3,7,8.6|
4,0,9.2|
4,1,7.7|
4,2,5.8|
4,3,9.3|
4,4,1.8|
4,5,7.1|
4,6,4.3|
4,7,1.9|
5,0,5|
5,1,2.3|
5,2,1.3|
5,3,2.9|
5,4,9.3|
5,5,9.5|
5,6,5|
5,7,6.3|
6,0,1.1|
6,1,3.6|
6,2,4.9|
6,3,4.6|
6,4,7.3|
6,5,1.8|
6,6,1.2|
6,7,9|
7,0,2.1|
7,1,6.4|
7,2,8.1|
7,3,3|
7,4,9.3|
7,5,3.8|
7,6,7.1|
7,7,0.46|
];
constraint_x6_x2=[
0,0,2.3|
0,1,3.6|
0,2,5.9|
0,3,5.3|
0,4,8.4|
0,5,8.1|
0,6,3.2|
0,7,7.5|
1,0,8.8|
1,1,5.1|
1,2,9.3|
1,3,9.2|
1,4,5.6|
1,5,5.9|
1,6,5.9|
1,7,9.8|
2,0,9.2|
2,1,2.8|
2,2,5.8|
2,3,3.3|
2,4,2.5|
2,5,4.6|
2,6,7.9|
2,7,1.2|
3,0,4.9|
3,1,8.4|
3,2,7.5|
3,3,8.6|
3,4,3.4|
3,5,7.8|
3,6,3.8|
3,7,2.3|
4,0,1.4|
4,1,4.9|
4,2,9.9|
4,3,8.4|
4,4,0.97|
4,5,4.5|
4,6,7.2|
4,7,4.5|
5,0,3.7|
5,1,8.2|
5,2,8.9|
5,3,2.7|
5,4,8.8|
5,5,7.8|
5,6,4.1|
5,7,7.5|
6,0,6.5|
6,1,4.8|
6,2,4.9|
6,3,1.8|
6,4,0.28|
6,5,4.1|
6,6,2|
6,7,8.1|
7,0,8.8|
7,1,5.7|
7,2,8.9|
7,3,1.6|
7,4,0.34|
7,5,0.027|
7,6,6.9|
7,7,7.8|
];
constraint_x6_x5=[
0,0,6.5|
0,1,4.5|
0,2,5.6|
0,3,9.4|
0,4,5.4|
0,5,6|
0,6,6.5|
0,7,7.3|
1,0,1.5|
1,1,8.6|
1,2,4.5|
1,3,4|
1,4,3.4|
1,5,1.6|
1,6,9.3|
1,7,9.6|
2,0,1.3|
2,1,7.8|
2,2,0.26|
2,3,7.6|
2,4,8|
2,5,7.4|
2,6,9.9|
2,7,1.3|
3,0,7.6|
3,1,8.4|
3,2,0.12|
3,3,1.9|
3,4,3.8|
3,5,0.94|
3,6,8.3|
3,7,8.4|
4,0,0.79|
4,1,1.6|
4,2,5|
4,3,9.7|
4,4,7.4|
4,5,0.81|
4,6,6.4|
4,7,3.9|
5,0,3|
5,1,0.83|
5,2,4.1|
5,3,9.6|
5,4,8.8|
5,5,1.3|
5,6,1.9|
5,7,7.5|
6,0,2.7|
6,1,4|
6,2,7.4|
6,3,5.8|
6,4,4.3|
6,5,3.8|
6,6,0.7|
6,7,8.2|
7,0,6.8|
7,1,2.2|
7,2,4.1|
7,3,0.43|
7,4,7|
7,5,8.5|
7,6,3.6|
7,7,2.3|
];
constraint_x7_x3=[
0,0,0.48|
0,1,5|
0,2,8.7|
0,3,0.15|
0,4,9.4|
0,5,7.1|
0,6,2.9|
0,7,4|
1,0,7.1|
1,1,6.8|
1,2,2.2|
1,3,3|
1,4,9.2|
1,5,6.2|
1,6,5.4|
1,7,7|
2,0,1.6|
2,1,6.4|
2,2,1.9|
2,3,5.7|
2,4,7.8|
2,5,5.1|
2,6,8.4|
2,7,8.2|
3,0,4.2|
3,1,8.8|
3,2,0.9|
3,3,3.3|
3,4,2.1|
3,5,5|
3,6,1.9|
3,7,2.6|
4,0,7.6|
4,1,2.2|
4,2,2.7|
4,3,4.9|
4,4,1.4|
4,5,4.4|
4,6,3.3|
4,7,2.7|
5,0,2.5|
5,1,8.3|
5,2,8|
5,3,0.45|
5,4,3.6|
5,5,4.5|
5,6,4.9|
5,7,3.4|
6,0,7.6|
6,1,4.9|
6,2,6.9|
6,3,7.5|
6,4,2.9|
6,5,3.7|
6,6,0.5|
6,7,8|
7,0,7.2|
7,1,8.2|
7,2,3.5|
7,3,5.5|
7,4,7.6|
7,5,0.27|
7,6,2.2|
7,7,2.1|
];
constraint_x7_x6=[
0,0,2.8|
0,1,5.6|
0,2,9.4|
0,3,8.1|
0,4,5.7|
0,5,0.61|
0,6,1.8|
0,7,7|
1,0,0.27|
1,1,9.6|
1,2,9|
1,3,0.56|
1,4,4.8|
1,5,9.4|
1,6,9.8|
1,7,5.1|
2,0,9.6|
2,1,3|
2,2,2.3|
2,3,2|
2,4,3.7|
2,5,5.1|
2,6,4.2|
2,7,2.7|
3,0,3.6|
3,1,2.4|
3,2,9|
3,3,8.2|
3,4,0.57|
3,5,4.4|
3,6,0.46|
3,7,5.6|
4,0,6.7|
4,1,2.1|
4,2,7.9|
4,3,6.6|
4,4,5.5|
4,5,5.9|
4,6,6.6|
4,7,1.6|
5,0,3.6|
5,1,2.6|
5,2,4.8|
5,3,8.2|
5,4,7.1|
5,5,5.6|
5,6,1.1|
5,7,2.3|
6,0,4.1|
6,1,6.6|
6,2,3.9|
6,3,3.9|
6,4,7.5|
6,5,2.8|
6,6,0.86|
6,7,8.7|
7,0,8.5|
7,1,9.1|
7,2,7.5|
7,3,7.8|
7,4,6.1|
7,5,9.2|
7,6,3.2|
7,7,7.2|
];
constraint_x8_x4=[
0,0,2|
0,1,2.4|
0,2,0.35|
0,3,7.7|
0,4,7.8|
0,5,5.4|
0,6,7.3|
0,7,7.7|
1,0,2.5|
1,1,8.2|
1,2,3.1|
1,3,5.3|
1,4,0.15|
1,5,7.4|
1,6,5|
1,7,4.1|
2,0,9.1|
2,1,1.7|
2,2,7|
2,3,2|
2,4,9.1|
2,5,0.82|
2,6,3.9|
2,7,2.5|
3,0,6.6|
3,1,2.8|
3,2,3|
3,3,8.6|
3,4,2.9|
3,5,1.7|
3,6,1.3|
3,7,7|
4,0,4.7|
4,1,5.1|
4,2,6.9|
4,3,2.9|
4,4,3.9|
4,5,3.4|
4,6,6.2|
4,7,9.7|
5,0,4.7|
5,1,0.51|
5,2,5.9|
5,3,8.3|
5,4,9.8|
5,5,3.5|
5,6,2.7|
5,7,2.8|
6,0,6.8|
6,1,3.1|
6,2,4.9|
6,3,2.3|
6,4,7.3|
6,5,1.9|
6,6,7.5|
6,7,8.7|
7,0,4|
7,1,4.3|
7,2,3.8|
7,3,4.3|
7,4,5.5|
7,5,4.4|
7,6,7.7|
7,7,3.6|
];
constraint_x8_x7=[
0,0,4.2|
0,1,3.7|
0,2,4.8|
0,3,3.4|
0,4,3|
0,5,2.9|
0,6,5.2|
0,7,6.5|
1,0,9.4|
1,1,5.4|
1,2,6.1|
1,3,7.7|
1,4,0.18|
1,5,2|
1,6,8.2|
1,7,1.8|
2,0,3.5|
2,1,5.1|
2,2,5.7|
2,3,9.4|
2,4,4.1|
2,5,3.7|
2,6,1.2|
2,7,1.5|
3,0,5.1|
3,1,4|
3,2,1.3|
3,3,1.8|
3,4,1.1|
3,5,8|
3,6,3.9|
3,7,0.47|
4,0,8.3|
4,1,4|
4,2,6.9|
4,3,2.1|
4,4,5.8|
4,5,6.7|
4,6,1.7|
4,7,6.3|
5,0,6.9|
5,1,1.4|
5,2,8.1|
5,3,8.1|
5,4,1.1|
5,5,3.2|
5,6,9.1|
5,7,5.7|
6,0,0.71|
6,1,4.8|
6,2,3.8|
6,3,7.8|
6,4,2|
6,5,4.7|
6,6,4.2|
6,7,7.1|
7,0,5.9|
7,1,5.8|
7,2,5.6|
7,3,2|
7,4,9.6|
7,5,0.29|
7,6,7.5|
7,7,0.6|
];
constraint_x9_x5=[
0,0,1.3|
0,1,1.3|
0,2,6.5|
0,3,7.3|
0,4,8.8|
0,5,4.1|
0,6,2.8|
0,7,3.2|
1,0,4.1|
1,1,6.5|
1,2,0.13|
1,3,2.4|
1,4,3.4|
1,5,1.9|
1,6,2.2|
1,7,0.12|
2,0,7.1|
2,1,4|
2,2,6|
2,3,5.4|
2,4,2.5|
2,5,0.48|
2,6,5.4|
2,7,6.9|
3,0,4.8|
3,1,4.1|
3,2,8.2|
3,3,6.5|
3,4,1.6|
3,5,4.2|
3,6,8.1|
3,7,7|
4,0,5.4|
4,1,4.6|
4,2,8.1|
4,3,2.2|
4,4,9.1|
4,5,9.7|
4,6,6.2|
4,7,7|
5,0,0.73|
5,1,7.9|
5,2,8.5|
5,3,9.8|
5,4,9.8|
5,5,4.3|
5,6,8.4|
5,7,1.2|
6,0,7.1|
6,1,8.3|
6,2,6.1|
6,3,7.7|
6,4,9.2|
6,5,5.6|
6,6,3.8|
6,7,5.6|
7,0,4.8|
7,1,7.4|
7,2,8.3|
7,3,5.3|
7,4,7.6|
7,5,6.1|
7,6,0.75|
7,7,1.5|
];
constraint_x10_x6=[
0,0,7.1|
0,1,9.4|
0,2,4.6|
0,3,5.7|
0,4,6.6|
0,5,0.39|
0,6,7.3|
0,7,7|
1,0,4|
1,1,6.5|
1,2,1.6|
1,3,2|
1,4,7.8|
1,5,0.97|
1,6,6|
1,7,7.2|
2,0,5.8|
2,1,2.9|
2,2,3.3|
2,3,5.6|
2,4,3.3|
2,5,3.4|
2,6,8.5|
2,7,4.3|
3,0,8.2|
3,1,5.9|
3,2,8.2|
3,3,2.4|
3,4,4.2|
3,5,8.5|
3,6,5.4|
3,7,2.7|
4,0,1.1|
4,1,1.8|
4,2,4.4|
4,3,5.9|
4,4,2.4|
4,5,0.21|
4,6,7.4|
4,7,6|
5,0,6.9|
5,1,3|
5,2,6.6|
5,3,1.8|
5,4,2.1|
5,5,4.5|
5,6,9.2|
5,7,3|
6,0,1.7|
6,1,1.3|
6,2,7.5|
6,3,0.54|
6,4,2|
6,5,1.8|
6,6,7.7|
6,7,2.4|
7,0,4.4|
7,1,3.3|
7,2,2.2|
7,3,1.4|
7,4,4|
7,5,5.9|
7,6,7.8|
7,7,5.3|
];
constraint_x10_x9=[
0,0,1.9|
0,1,6.4|
0,2,9.6|
0,3,6.2|
0,4,1.1|
0,5,1.8|
0,6,9.6|
0,7,5.2|
1,0,4.1|
1,1,3|
1,2,3.8|
1,3,8.5|
1,4,0.05|
1,5,3.2|
1,6,5.8|
1,7,2|
2,0,3.8|
2,1,5.7|
2,2,0.84|
2,3,2.7|
2,4,8.9|
2,5,6.2|
2,6,3.1|
2,7,4.7|
3,0,8.9|
3,1,2.8|
3,2,4.8|
3,3,6.3|
3,4,7.4|
3,5,0.96|
3,6,6.4|
3,7,0.5|
4,0,9.8|
4,1,6.8|
4,2,9.4|
4,3,6.8|
4,4,8.6|
4,5,0.032|
4,6,4.8|
4,7,5.2|
5,0,3.9|
5,1,6.2|
5,2,1.5|
5,3,10|
5,4,6.2|
5,5,0.7|
5,6,1.7|
5,7,9.5|
6,0,0.1|
6,1,2.5|
6,2,8|
6,3,1.8|
6,4,7|
6,5,7.8|
6,6,7.6|
6,7,5.6|
7,0,4.8|
7,1,6.2|
7,2,9.4|
7,3,5|
7,4,1.2|
7,5,8.8|
7,6,3.1|
7,7,1.5|
];
constraint_x11_x7=[
0,0,1.4|
0,1,4|
0,2,9|
0,3,8.9|
0,4,5.1|
0,5,9.4|
0,6,5.1|
0,7,9.8|
1,0,9.3|
1,1,8.6|
1,2,4.6|
1,3,0.69|
1,4,4.6|
1,5,3|
1,6,7.7|
1,7,6.1|
2,0,2.8|
2,1,6.5|
2,2,0.24|
2,3,6.2|
2,4,9.5|
2,5,3|
2,6,0.065|
2,7,4.2|
3,0,9.1|
3,1,7.3|
3,2,2.8|
3,3,7.6|
3,4,4.1|
3,5,1.8|
3,6,6|
3,7,8.7|
4,0,9.3|
4,1,7.8|
4,2,3.3|
4,3,1.6|
4,4,4.8|
4,5,3.8|
4,6,1.5|
4,7,4.6|
5,0,3.1|
5,1,6.7|
5,2,7.9|
5,3,1.9|
5,4,0.85|
5,5,5.6|
5,6,9.9|
5,7,7.9|
6,0,0.26|
6,1,9.9|
6,2,8.8|
6,3,9.3|
6,4,8.6|
6,5,8.4|
6,6,1.9|
6,7,3|
7,0,2|
7,1,0.076|
7,2,7.4|
7,3,5.1|
7,4,3.2|
7,5,9.1|
7,6,2.2|
7,7,0.41|
];
constraint_x11_x10=[
0,0,0.93|
0,1,6.9|
0,2,6.2|
0,3,8.4|
0,4,9.9|
0,5,9.5|
0,6,3.3|
0,7,7.5|
1,0,6.4|
1,1,3.4|
1,2,0.36|
1,3,5.7|
1,4,2.7|
1,5,2.4|
1,6,8.5|
1,7,7.1|
2,0,9.9|
2,1,3.1|
2,2,0.12|
2,3,0.65|
2,4,9.8|
2,5,6.6|
2,6,4.4|
2,7,2.6|
3,0,9.4|
3,1,1.3|
3,2,8.1|
3,3,9.5|
3,4,8.2|
3,5,5.9|
3,6,6.9|
3,7,5.2|
4,0,8.8|
4,1,9|
4,2,4.9|
4,3,4.4|
4,4,9.9|
4,5,5.9|
4,6,2.6|
4,7,1.5|
5,0,1.7|
5,1,6|
5,2,0.18|
5,3,4.3|
5,4,6.3|
5,5,9.9|
5,6,3.7|
5,7,1.7|
6,0,2.8|
6,1,1.2|
6,2,9.2|
6,3,1.7|
6,4,9.5|
6,5,5.7|
6,6,0.36|
6,7,3.6|
7,0,7.9|
7,1,0.52|
7,2,2.5|
7,3,4.7|
7,4,2.5|
7,5,6.8|
7,6,4.8|
7,7,1.8|
];
constraint_x12_x8=[
0,0,2.3|
0,1,8.2|
0,2,0.8|
0,3,7.2|
0,4,6.3|
0,5,1.1|
0,6,3.7|
0,7,6.9|
1,0,6|
1,1,7.5|
1,2,1.4|
1,3,7|
1,4,0.18|
1,5,8.1|
1,6,8.1|
1,7,8.4|
2,0,2.6|
2,1,1.6|
2,2,1.1|
2,3,2|
2,4,4|
2,5,1.6|
2,6,8|
2,7,5.9|
3,0,1.3|
3,1,3.3|
3,2,8.5|
3,3,4.7|
3,4,4.4|
3,5,5.4|
3,6,3.3|
3,7,4.2|
4,0,5.6|
4,1,1.2|
4,2,3.5|
4,3,2.9|
4,4,5.7|
4,5,3|
4,6,3.2|
4,7,8.4|
5,0,2|
5,1,0.26|
5,2,2.6|
5,3,0.37|
5,4,6.1|
5,5,9.6|
5,6,4.2|
5,7,6.6|
6,0,5.6|
6,1,0.81|
6,2,7.9|
6,3,0.61|
6,4,3.9|
6,5,6.7|
6,6,0.84|
6,7,7.4|
7,0,0.33|
7,1,4.3|
7,2,7.7|
7,3,4|
7,4,1.4|
7,5,8|
7,6,5.9|
7,7,7.2|
];
constraint_x12_x11=[
0,0,5.8|
0,1,7.2|
0,2,4.5|
0,3,5.7|
0,4,3.3|
0,5,8.9|
0,6,6.4|
0,7,6.2|
1,0,8.6|
1,1,4.3|
1,2,9.9|
1,3,3|
1,4,7.1|
1,5,8.5|
1,6,5.1|
1,7,0.95|
2,0,2.7|
2,1,3|
2,2,2.2|
2,3,6.3|
2,4,9.7|
2,5,4.8|
2,6,6.5|
2,7,6|
3,0,9|
3,1,4.4|
3,2,6.3|
3,3,0.64|
3,4,4.8|
3,5,6.8|
3,6,9.3|
3,7,0.11|
4,0,9.1|
4,1,8.1|
4,2,7.8|
4,3,5|
4,4,6.5|
4,5,7.8|
4,6,7.7|
4,7,2.5|
5,0,1.4|
5,1,7.8|
5,2,6|
5,3,7.4|
5,4,2.8|
5,5,5.2|
5,6,5.8|
5,7,8.2|
6,0,5.5|
6,1,3.3|
6,2,7.3|
6,3,2.7|
6,4,7|
6,5,6.1|
6,6,4.7|
6,7,8.9|
7,0,0.2|
7,1,3.1|
7,2,4.3|
7,3,1|
7,4,2.9|
7,5,5.7|
7,6,5.6|
7,7,9.2|
];
constraint_x13_x9=[
0,0,6.9|
0,1,8.2|
0,2,2.9|
0,3,8.7|
0,4,3.4|
0,5,4.8|
0,6,9.9|
0,7,2.8|
1,0,0.69|
1,1,7.9|
1,2,2.5|
1,3,5|
1,4,4.8|
1,5,6.3|
1,6,2.9|
1,7,8.6|
2,0,8.7|
2,1,1.1|
2,2,5.3|
2,3,10|
2,4,9|
2,5,4.3|
2,6,1.6|
2,7,3.2|
3,0,1.8|
3,1,6.4|
3,2,0.26|
3,3,2.2|
3,4,8.5|
3,5,5.9|
3,6,6.4|
3,7,9.5|
4,0,0.79|
4,1,4.9|
4,2,3.4|
4,3,0.26|
4,4,2.2|
4,5,6.4|
4,6,2|
4,7,4.2|
5,0,3.5|
5,1,3|
5,2,4.6|
5,3,4.5|
5,4,5.8|
5,5,4.1|
5,6,3.5|
5,7,6.8|
6,0,7.4|
6,1,7.4|
6,2,9.8|
6,3,2.1|
6,4,5.8|
6,5,4.8|
6,6,8.5|
6,7,6.6|
7,0,2.2|
7,1,8.2|
7,2,3.9|
7,3,8.4|
7,4,7.3|
7,5,1.7|
7,6,3|
7,7,2.6|
];
constraint_x14_x10=[
0,0,7.2|
0,1,0.7|
0,2,6.1|
0,3,3.4|
0,4,0.98|
0,5,0.21|
0,6,7.4|
0,7,3.8|
1,0,6|
1,1,5.1|
1,2,6.6|
1,3,7.3|
1,4,1.7|
1,5,4.1|
1,6,7.6|
1,7,8.1|
2,0,1.4|
2,1,0.94|
2,2,7.4|
2,3,7.6|
2,4,3.8|
2,5,8.2|
2,6,6.5|
2,7,8.7|
3,0,9.5|
3,1,4.9|
3,2,6|
3,3,5.4|
3,4,7.6|
3,5,6.5|
3,6,5.3|
3,7,1.3|
4,0,4.8|
4,1,6.3|
4,2,9|
4,3,8|
4,4,7.4|
4,5,7|
4,6,2.2|
4,7,7.4|
5,0,3.7|
5,1,3.6|
5,2,2.4|
5,3,0.41|
5,4,5.2|
5,5,2.3|
5,6,6.5|
5,7,1.7|
6,0,0.37|
6,1,0.43|
6,2,1.3|
6,3,7.3|
6,4,1.1|
6,5,8|
6,6,5|
6,7,6.4|
7,0,1.8|
7,1,8.6|
7,2,5.2|
7,3,2.6|
7,4,6|
7,5,9.3|
7,6,6.4|
7,7,7.7|
];
constraint_x15_x11=[
0,0,6.4|
0,1,7.2|
0,2,9.3|
0,3,6.7|
0,4,6.8|
0,5,5.2|
0,6,3.7|
0,7,3.3|
1,0,0.55|
1,1,3.1|
1,2,0.48|
1,3,1.4|
1,4,7.5|
1,5,3.4|
1,6,4.7|
1,7,1.6|
2,0,4.1|
2,1,5.6|
2,2,7.1|
2,3,0.51|
2,4,5.2|
2,5,3.6|
2,6,2.4|
2,7,9.9|
3,0,8.6|
3,1,7.3|
3,2,0.29|
3,3,0.45|
3,4,6.7|
3,5,6.9|
3,6,3.4|
3,7,8.7|
4,0,1.1|
4,1,5.1|
4,2,9|
4,3,5.5|
4,4,8.6|
4,5,0.46|
4,6,4.5|
4,7,8.3|
5,0,4.5|
5,1,4.1|
5,2,2.4|
5,3,7.9|
5,4,9.8|
5,5,7.9|
5,6,5.5|
5,7,8.8|
6,0,1.8|
6,1,3.4|
6,2,0.52|
6,3,2.5|
6,4,0.33|
6,5,0.77|
6,6,3.3|
6,7,7.1|
7,0,7.3|
7,1,1.5|
7,2,1.4|
7,3,0.094|
7,4,7.4|
7,5,6.6|
7,6,6.1|
7,7,5|
];
constraint_x16_x12=[
0,0,10|
0,1,7.2|
0,2,4.9|
0,3,1|
0,4,0.48|
0,5,1.4|
0,6,2.6|
0,7,8.1|
1,0,6.5|
1,1,4.7|
1,2,5.6|
1,3,0.75|
1,4,6.6|
1,5,5|
1,6,5.1|
1,7,8.7|
2,0,3.5|
2,1,4.3|
2,2,6|
2,3,6.2|
2,4,5.4|
2,5,3.4|
2,6,6.6|
2,7,8.4|
3,0,1.2|
3,1,8.3|
3,2,9.5|
3,3,3.3|
3,4,0.4|
3,5,8.8|
3,6,8.3|
3,7,7|
4,0,4.3|
4,1,6.9|
4,2,2.4|
4,3,9.9|
4,4,0.5|
4,5,7.1|
4,6,2.7|
4,7,5.1|
5,0,3.9|
5,1,7.6|
5,2,1.4|
5,3,0.82|
5,4,8.6|
5,5,9.3|
5,6,0.54|
5,7,7.4|
6,0,5.2|
6,1,4.6|
6,2,0.43|
6,3,1.4|
6,4,3.2|
6,5,7.9|
6,6,0.59|
6,7,6.8|
7,0,2.6|
7,1,7.8|
7,2,9.5|
7,3,3.7|
7,4,6.9|
7,5,6.1|
7,6,9.8|
7,7,2.9|
];
constraint_x1_y1=[
0,0,3.6|
0,1,6.7|
0,2,1.8|
0,3,6.6|
0,4,4.9|
0,5,0.37|
0,6,0.45|
0,7,9.4|
1,0,1.1|
1,1,9.8|
1,2,5.3|
1,3,5.6|
1,4,2.7|
1,5,5.6|
1,6,4.9|
1,7,6.9|
2,0,5.9|
2,1,9.2|
2,2,7.9|
2,3,7.8|
2,4,7.1|
2,5,5|
2,6,8|
2,7,8.2|
3,0,1.1|
3,1,9.6|
3,2,2.4|
3,3,1.3|
3,4,3.7|
3,5,4.1|
3,6,6.1|
3,7,4.2|
4,0,0.59|
4,1,3.4|
4,2,10|
4,3,4.9|
4,4,7.1|
4,5,8.7|
4,6,8.7|
4,7,7.3|
5,0,0.7|
5,1,3|
5,2,1.8|
5,3,6.3|
5,4,0.035|
5,5,6.1|
5,6,5.5|
5,7,9|
6,0,8.4|
6,1,5.2|
6,2,2.5|
6,3,5.6|
6,4,10|
6,5,0.72|
6,6,8.7|
6,7,4.5|
7,0,9.9|
7,1,8.2|
7,2,5.1|
7,3,6.5|
7,4,4.2|
7,5,0.25|
7,6,4.1|
7,7,4|
];
constraint_x2_y2=[
0,0,0.71|
0,1,6|
0,2,3.2|
0,3,7.7|
0,4,8.6|
0,5,3.9|
0,6,4.7|
0,7,3.3|
1,0,3|
1,1,2.6|
1,2,7.6|
1,3,8.4|
1,4,6.6|
1,5,8.2|
1,6,9.5|
1,7,2.6|
2,0,7.9|
2,1,7.7|
2,2,2.6|
2,3,9|
2,4,0.31|
2,5,5.1|
2,6,9.1|
2,7,1|
3,0,7.5|
3,1,2.5|
3,2,9.6|
3,3,9.2|
3,4,8.5|
3,5,7.2|
3,6,0.81|
3,7,8.2|
4,0,7.1|
4,1,6|
4,2,6.7|
4,3,9.7|
4,4,8.6|
4,5,2|
4,6,8.2|
4,7,9.2|
5,0,5.6|
5,1,7.5|
5,2,2.4|
5,3,4|
5,4,6.8|
5,5,9.6|
5,6,0.29|
5,7,0.61|
6,0,1.4|
6,1,8.4|
6,2,9.8|
6,3,3.5|
6,4,8.6|
6,5,0.5|
6,6,3.8|
6,7,2.9|
7,0,5.9|
7,1,2.4|
7,2,3|
7,3,4.4|
7,4,0.38|
7,5,7.2|
7,6,8.1|
7,7,4.5|
];
constraint_x3_y3=[
0,0,7.9|
0,1,4.5|
0,2,5.2|
0,3,6|
0,4,5.1|
0,5,7.7|
0,6,9|
0,7,2.8|
1,0,6.9|
1,1,8.8|
1,2,8.3|
1,3,8.7|
1,4,0.97|
1,5,9.8|
1,6,4|
1,7,7.5|
2,0,3.9|
2,1,7.5|
2,2,2.8|
2,3,8.4|
2,4,0.54|
2,5,6.8|
2,6,0.1|
2,7,7.9|
3,0,6.2|
3,1,4.1|
3,2,9.4|
3,3,0.72|
3,4,1|
3,5,5|
3,6,2.2|
3,7,8.1|
4,0,1.9|
4,1,8.4|
4,2,8|
4,3,4.9|
4,4,5.2|
4,5,7.4|
4,6,8.9|
4,7,0.41|
5,0,4|
5,1,8.9|
5,2,6.5|
5,3,4.9|
5,4,6.5|
5,5,8.8|
5,6,7|
5,7,8|
6,0,5.2|
6,1,2.2|
6,2,6.1|
6,3,9.8|
6,4,8.5|
6,5,8.4|
6,6,4.6|
6,7,0.17|
7,0,7.5|
7,1,2.1|
7,2,0.77|
7,3,7.7|
7,4,0.67|
7,5,6.8|
7,6,7.8|
7,7,4.1|
];
constraint_x4_y4=[
0,0,3.6|
0,1,6|
0,2,9.9|
0,3,1.2|
0,4,2.7|
0,5,2|
0,6,5.1|
0,7,9.1|
1,0,1.4|
1,1,4.3|
1,2,7.7|
1,3,0.84|
1,4,3|
1,5,1.8|
1,6,0.47|
1,7,7|
2,0,9.3|
2,1,6.2|
2,2,0.63|
2,3,4.9|
2,4,7.6|
2,5,5.7|
2,6,6.5|
2,7,2.1|
3,0,9.8|
3,1,1.3|
3,2,9.8|
3,3,2.2|
3,4,7.1|
3,5,5.9|
3,6,6.8|
3,7,5|
4,0,8.7|
4,1,8.5|
4,2,7.7|
4,3,0.32|
4,4,1.4|
4,5,0.079|
4,6,4.9|
4,7,8.5|
5,0,9|
5,1,8.2|
5,2,1.9|
5,3,9.8|
5,4,8.1|
5,5,5.6|
5,6,0.79|
5,7,7.6|
6,0,8.7|
6,1,5.8|
6,2,9.2|
6,3,9.4|
6,4,2.3|
6,5,7|
6,6,1.5|
6,7,4.2|
7,0,9.7|
7,1,6.1|
7,2,1.2|
7,3,1.7|
7,4,6|
7,5,9.5|
7,6,3.6|
7,7,1.4|
];
constraint_x5_y5=[
0,0,9.1|
0,1,1.1|
0,2,4.2|
0,3,2.5|
0,4,6.2|
0,5,4.4|
0,6,2.7|
0,7,5.8|
1,0,4.3|
1,1,2.5|
1,2,2.5|
1,3,3|
1,4,5.6|
1,5,7.9|
1,6,3.7|
1,7,2.5|
2,0,3.4|
2,1,10|
2,2,0.22|
2,3,8.5|
2,4,6.5|
2,5,4.5|
2,6,5.4|
2,7,6.6|
3,0,7.9|
3,1,7|
3,2,0.85|
3,3,2.2|
3,4,8.5|
3,5,7.4|
3,6,4|
3,7,0.83|
4,0,4.7|
4,1,0.92|
4,2,9.3|
4,3,1.9|
4,4,8.7|
4,5,6.5|
4,6,5.1|
4,7,7|
5,0,9.2|
5,1,7.9|
5,2,2.9|
5,3,10|
5,4,8.7|
5,5,1.3|
5,6,5.3|
5,7,0.7|
6,0,6.4|
6,1,5.7|
6,2,0.66|
6,3,9.7|
6,4,6.5|
6,5,5.6|
6,6,7.9|
6,7,4.3|
7,0,7.3|
7,1,7.7|
7,2,7.4|
7,3,4.3|
7,4,9.7|
7,5,4.4|
7,6,5.3|
7,7,8.7|
];
constraint_x6_y6=[
0,0,9.4|
0,1,6.5|
0,2,7.2|
0,3,8|
0,4,1.9|
0,5,4.2|
0,6,3|
0,7,4.7|
1,0,9.6|
1,1,8.8|
1,2,7.5|
1,3,2.5|
1,4,5.8|
1,5,3.5|
1,6,2.9|
1,7,5.6|
2,0,9.3|
2,1,1.2|
2,2,2|
2,3,8.4|
2,4,7.6|
2,5,1.3|
2,6,7.4|
2,7,8.4|
3,0,2.3|
3,1,8.7|
3,2,8.1|
3,3,5.7|
3,4,0.077|
3,5,6.1|
3,6,1.4|
3,7,6.4|
4,0,1.7|
4,1,2.5|
4,2,2.6|
4,3,3.3|
4,4,7.8|
4,5,9.2|
4,6,3.7|
4,7,8|
5,0,1.7|
5,1,1.7|
5,2,6.4|
5,3,4.1|
5,4,7.9|
5,5,3.2|
5,6,8.6|
5,7,9.4|
6,0,7.9|
6,1,0.8|
6,2,5.7|
6,3,7.9|
6,4,2.8|
6,5,5.4|
6,6,2.4|
6,7,0.67|
7,0,8.3|
7,1,0.33|
7,2,8.4|
7,3,1.2|
7,4,2.7|
7,5,0.21|
7,6,5.4|
7,7,0.45|
];
constraint_x7_y7=[
0,0,7.8|
0,1,8.2|
0,2,2.3|
0,3,3|
0,4,6.1|
0,5,8.5|
0,6,4.5|
0,7,2.3|
1,0,10|
1,1,6|
1,2,1.8|
1,3,6.7|
1,4,9.5|
1,5,5.6|
1,6,0.87|
1,7,4.9|
2,0,7.6|
2,1,3|
2,2,7.1|
2,3,4.3|
2,4,3.8|
2,5,9.7|
2,6,2.7|
2,7,8.6|
3,0,3.1|
3,1,1.3|
3,2,6.6|
3,3,1.1|
3,4,2.5|
3,5,3|
3,6,2.3|
3,7,3.2|
4,0,3.9|
4,1,2.4|
4,2,7.4|
4,3,3.3|
4,4,3.1|
4,5,9.4|
4,6,1.1|
4,7,3.1|
5,0,9.4|
5,1,8.9|
5,2,5.4|
5,3,5.8|
5,4,7.9|
5,5,6.9|
5,6,4.7|
5,7,5.8|
6,0,9.1|
6,1,4.9|
6,2,8|
6,3,0.27|
6,4,7.4|
6,5,6.1|
6,6,3.7|
6,7,6.6|
7,0,3|
7,1,9.6|
7,2,0.19|
7,3,1.7|
7,4,0.29|
7,5,7.7|
7,6,5.2|
7,7,2.3|
];
initial_distribution_y1=[0.14,0.0061,0.14,0.13,0.1,0.11,0.27,0.1];
initial_distribution_y2=[0.13,0.15,0.11,0.16,0.048,0.16,0.21,0.027];
initial_distribution_y3=[0.14,0.061,0.1,0.26,0.012,0.14,0.075,0.21];
initial_distribution_y4=[0.14,0.23,0.075,0.036,0.17,0.071,0.11,0.18];
initial_distribution_y5=[0.13,0.11,0.2,0.23,0.24,0.021,0.023,0.054];
initial_distribution_y6=[0.11,0.17,0.18,0.15,0.1,0.18,0.11,0.0024];
initial_distribution_y7=[0.22,0.14,0.051,0.2,0.13,0.094,0.049,0.12];
transition_y1=[
0.073,0.16,0.14,0.12,0.14,0.038,0.17,0.15|
0.045,0.077,0.19,0.14,0.18,0.094,0.17,0.097|
0.065,0.045,0.071,0.13,0.16,0.19,0.15,0.19|
0.05,0.18,0.24,0.093,0.075,0.22,0.028,0.11|
0.086,0.15,0.064,0.054,0.16,0.1,0.22,0.17|
0.19,0.13,0.13,0.0055,0.11,0.18,0.15,0.11|
0.065,0.18,0.19,0.13,0.093,0.02,0.13,0.2|
0.2,0.11,0.0062,0.14,0.15,0.17,0.053,0.16|
];
transition_y2=[
0.12,0.21,0.049,0.15,0.1,0.038,0.18,0.15|
0.16,0.12,0.051,0.14,0.14,0.099,0.15,0.13|
0.056,0.0082,0.011,0.13,0.27,0.18,0.13,0.21|
0.17,0.18,0.033,0.071,0.14,0.1,0.13,0.18|
0.14,0.23,0.038,0.0024,0.14,0.18,0.17,0.11|
0.025,0.1,0.15,0.23,0.032,0.17,0.14,0.15|
0.023,0.049,0.16,0.068,0.064,0.26,0.25,0.13|
0.02,0.12,0.13,0.19,0.11,0.13,0.2,0.1|
];
transition_y3=[
0.25,0.021,0.066,0.24,0.036,0.027,0.24,0.12|
0.054,0.19,0.097,0.1,0.23,0.11,0.032,0.19|
0.064,0.2,0.017,0.012,0.09,0.2,0.19,0.23|
0.1,0.054,0.16,0.12,0.13,0.13,0.18,0.12|
0.12,0.049,0.093,0.18,0.061,0.14,0.17,0.18|
0.055,0.034,0.037,0.12,0.13,0.2,0.22,0.2|
0.12,0.047,0.11,0.11,0.35,0.014,0.024,0.22|
0.12,0.19,0.16,0.17,0.085,0.044,0.14,0.11|
];
transition_y4=[
0.11,0.24,0.12,0.048,0.034,0.1,0.24,0.094|
0.14,0.17,0.1,0.08,0.15,0.21,0.14,0.0065|
0.19,0.17,0.11,0.19,0.13,0.015,0.18,0.013|
0.045,0.16,0.24,0.066,0.25,0.025,0.17,0.053|
0.1,0.21,0.15,0.24,0.18,0.085,0.022,0.016|
0.062,0.12,0.071,0.24,0.12,0.24,0.075,0.074|
0.011,0.032,0.16,0.15,0.19,0.24,0.18,0.032|
0.027,0.23,0.24,0.024,0.053,0.11,0.091,0.23|
];
transition_y5=[
0.26,0.079,0.12,0.013,0.046,0.012,0.2,0.26|
0.24,0.01,0.21,0.01,0.14,0.21,0.16,0.019|
0.11,0.16,0.15,0.13,0.07,0.12,0.2,0.073|
0.2,0.094,0.2,0.11,0.26,0.044,0.036,0.067|
0.071,0.19,0.036,0.27,0.2,0.025,0.051,0.15|
0.05,0.16,0.14,0.15,0.16,0.15,0.017,0.17|
0.18,0.14,0.018,0.024,0.076,0.19,0.2,0.17|
0.17,0.15,0.16,0.16,0.1,0.1,0.015,0.14|
];
transition_y6=[
0.047,0.11,0.22,0.07,0.19,0.12,0.15,0.1|
0.027,0.049,0.15,0.17,0.14,0.15,0.16,0.16|
0.12,0.11,0.18,0.2,0.047,0.2,0.04,0.098|
0.17,0.004,0.1,0.026,0.25,0.13,0.21,0.1|
0.28,0.04,0.12,0.087,0.12,0.23,0.06,0.063|
0.05,0.19,0.08,0.18,0.15,0.13,0.13,0.089|
0.12,0.18,0.092,0.051,0.21,0.043,0.029,0.28|
0.084,0.15,0.14,0.19,0.019,0.11,0.23,0.087|
];
transition_y7=[
0.13,0.14,0.18,0.079,0.11,0.018,0.16,0.18|
0.18,0.12,0.13,0.019,0.064,0.23,0.11,0.15|
0.17,0.2,0.018,0.029,0.15,0.12,0.21,0.096|
0.014,0.12,0.14,0.022,0.3,0.16,0.13,0.1|
0.063,0.073,0.17,0.21,0.14,0.2,0.011,0.14|
0.19,0.15,0.0032,0.17,0.15,0.11,0.19,0.041|
0.17,0.037,0.063,0.073,0.048,0.28,0.28,0.044|
0.025,0.16,0.036,0.22,0.023,0.24,0.12,0.18|
];
